NAME : data_15_5_tsptw.tsptw.9032.tour
COMMENT : Length = 9032
COMMENT : Found by LKH [Keld Helsgaun] Wed Feb  5 14:26:17 2020
TYPE : TOUR
DIMENSION : 16
TOUR_SECTION
1
16
9
13
6
7
5
2
4
14
3
10
8
12
11
15
-1
EOF
